10J3M/DAT/10J3MNNR-1.dat
10 3
18.9491 35.991
25.1052 41.7414
29.1745 39.2581
31.0464 30.6652
29.5961 11.6276
14.7846 48.2665
30.8 13.4461
17.4348 15.5074
27.8617 5.1715
21.6352 41.2923
282.9671